c This is QMaxSAT 2017 based on 14.07
c This is Glucose 3.0
c This is MiniSat 2.2.0
c WARNING: for repeatability, setting FPU to use double precision
c card = mrwto, comp = 0, pmodel = 0, narr = 3, mct = 14, verb = 0
cr firstCPXsol 0 0 0
c top = 80229
c |  Number of variables:    2616                                             |
c |  Number of clauses:      167810                                           |
c |  Weight of hard clauses: 80229                                            |
c |  Number of soft clauses: 546                                              |
c |  Number of unit soft clauses: 546                                         |
c |  Maximum Cardinality (by unit): 240684       (240684      )               |
c last restart ## conflicts  :  16 1637 
o 2183 | cpuTime 0.025594 s
c Sum of weights = 80228
c A number of soft clauses remained = 182
c MRWTO encoding for Pseudo-Boolean Constraints
c sizeMax=2183
c No.0 Divisor=13	generated by pow1
c No.1 Divisor=13	generated by pow1
c No.2 Divisor=13	generated by pow1
c p0= 13	p1= 13	p2= 13	
c number of digits = 4
c linkingVar[0].size = 13, linkingVar[1].size = 13, linkingVar[2].size = 13, linkingVar[3].size = 1, 
c Pseudo-Boolean Constraints: 4885 variables and 51990 clauses
c Sum of weights = 80228
c A number of soft clauses remained = 182
c MRWTO encoding for Pseudo-Boolean Constraints
c sizeMax=2183
c No.0 Divisor=13	generated by pow1
c No.1 Divisor=13	generated by pow1
c No.2 Divisor=13	generated by pow1
c p0= 13	p1= 13	p2= 13	
c number of digits = 4
c linkingVar[0].size = 13, linkingVar[1].size = 13, linkingVar[2].size = 13, linkingVar[3].size = 1, 
c Pseudo-Boolean Constraints: 4885 variables and 51990 clauses
c Sum of weights = 80228
c A number of soft clauses remained = 182
c MRWTO encoding for Pseudo-Boolean Constraints
c sizeMax=2183
c No.0 Divisor=13	generated by pow1
c No.1 Divisor=13	generated by pow1
c No.2 Divisor=13	generated by pow1
c p0= 13	p1= 13	p2= 13	
c number of digits = 4
c linkingVar[0].size = 13, linkingVar[1].size = 13, linkingVar[2].size = 13, linkingVar[3].size = 1, 
c Pseudo-Boolean Constraints: 4885 variables and 51990 clauses
c last restart ## conflicts  :  227 1408 
o 2134 | cpuTime 0.163423 s
c last restart ## conflicts  :  400 2009 
o 2023 | cpuTime 0.227311 s
c last restart ## conflicts  :  38 1657 
o 2000 | cpuTime 0.251514 s
c last restart ## conflicts  :  25 4005 
o 1969 | cpuTime 0.255944 s
c last restart ## conflicts  :  447 1702 
o 1958 | cpuTime 0.318918 s
c last restart ## conflicts  :  240 1555 
o 1858 | cpuTime 0.600056 s
c last restart ## conflicts  :  258 1533 
o 1819 | cpuTime 1.01209 s
c last restart ## conflicts  :  95 1616 
o 1791 | cpuTime 1.13641 s
c last restart ## conflicts  :  145 1327 
o 1778 | cpuTime 2.67818 s
c last restart ## conflicts  :  2968 1372 
o 1771 | cpuTime 4.2591 s
c last restart ## conflicts  :  271 1381 
o 1767 | cpuTime 8.20941 s
c last restart ## conflicts  :  63 1598 
o 1766 | cpuTime 8.84696 s
s OPTIMUM FOUND
cr positiVarArr: [ | 2@1(1->2) | 27@1(2->13) | 123@1(9->11) | 127@1(10->1) | 150@1(11->10) | 177@1(13->9) | 204@2(1->8) | 238@2(3->14) | 241@2(4->3) | 278@2(6->12) | 286@2(7->6) | 301@2(8->7) | 354@2(12->4) | 379@2(14->1) | 397@3(1->5) | 449@3(5->1) | ]
cr the 1-th chain: [ 1->2->13->9->11->10->1 ] (#non-depot=5) {#cumul.=6}
cr the 2-th chain: [ 1->8->7->6->12->4->3->14->1 ] (#non-depot=7) {#cumul.=13}
cr the 3-th chain: [ 1->5->1 ] (#non-depot=1) {#cumul.=14}
c Latest Answer = 0 by 13 loops
c restarts              : 2244
c conflicts             : 397476         (16190 /sec)
c decisions             : 1816120        (0.00 % random) (73975 /sec)
c propagations          : 176569897      (7192144 /sec)
c conflict literals     : 28541883       (25.53 % deleted)
c Memory used           : 99.00 MB
c CPU time              : 24.5504 s
